2 100 1250
5 7 5 9 3 3 2 3 1 5
4 4
3 1 1 1
3 9 1 3
0 35.0 35.0 0.0 0.0 0 230
2 41.0 49.0 10.0 10.0 0 204 93 0 0 0 0 0 0 0 1 0 0
3 35.0 17.0 10.0 7.0 0 202 2 0 0 0 0 0 1 0 0 0 1
4 55.0 45.0 10.0 13.0 0 197 9 0 0 0 0 0 0 0 0 1 0
5 55.0 20.0 10.0 19.0 149 159 32 0 0 0 0 0 0 1 0 1 0
6 15.0 30.0 10.0 26.0 0 199 49 0 0 0 0 0 1 0 0 0 0
7 25.0 30.0 10.0 3.0 99 109 31 0 0 0 0 1 0 0 0 1 1
8 20.0 50.0 10.0 5.0 0 198 76 1 0 0 0 0 0 0 1 0 0
9 10.0 43.0 10.0 9.0 95 105 45 1 0 0 0 1 0 0 0 0 0
10 55.0 60.0 10.0 16.0 97 107 45 0 1 0 0 1 0 0 0 0 0
11 30.0 60.0 10.0 16.0 124 134 17 0 0 0 0 0 0 0 0 1 0
12 20.0 65.0 10.0 12.0 67 77 29 0 0 0 0 0 0 0 0 1 0
13 50.0 35.0 10.0 19.0 0 205 57 0 0 0 1 0 0 0 0 0 0
14 30.0 25.0 10.0 23.0 159 169 51 0 0 1 0 1 1 0 0 0 0
15 15.0 10.0 10.0 20.0 32 42 5 1 0 0 0 1 0 1 0 0 0
16 30.0 5.0 10.0 8.0 61 71 37 0 0 0 0 1 0 0 0 0 0
17 10.0 20.0 10.0 19.0 75 85 40 0 0 0 1 1 1 0 1 0 0
18 5.0 30.0 10.0 2.0 157 167 5 1 0 0 0 0 1 0 0 0 0
19 20.0 40.0 10.0 12.0 87 97 95 0 0 1 0 1 0 0 0 0 0
20 15.0 60.0 10.0 17.0 76 86 18 0 0 0 0 0 0 1 0 0 1
21 45.0 65.0 10.0 9.0 126 136 29 1 0 0 0 0 1 0 0 0 0
22 45.0 20.0 10.0 11.0 0 201 73 0 0 1 0 0 0 0 0 0 0
23 45.0 10.0 10.0 18.0 97 107 68 0 0 1 0 1 0 0 0 0 0
24 55.0 5.0 10.0 29.0 68 78 44 1 0 0 0 0 0 1 0 0 0
25 65.0 35.0 10.0 3.0 153 163 88 1 0 1 0 0 0 0 0 1 1
26 65.0 20.0 10.0 6.0 172 182 83 0 0 0 0 0 0 0 0 1 0
27 45.0 30.0 10.0 17.0 0 208 1 0 1 0 1 0 0 0 0 0 0
28 35.0 40.0 10.0 16.0 37 47 12 1 0 0 1 0 0 0 0 0 0
29 41.0 37.0 10.0 16.0 39 49 92 0 1 0 0 0 1 0 0 0 0
30 64.0 42.0 10.0 9.0 63 73 15 0 1 0 0 0 0 0 0 1 1
31 40.0 60.0 10.0 21.0 71 81 11 0 0 1 0 1 0 1 1 0 0
32 31.0 52.0 10.0 27.0 0 202 80 0 0 0 1 0 0 0 0 0 0
33 35.0 69.0 10.0 23.0 141 151 52 0 0 0 1 0 0 1 1 0 0
34 53.0 52.0 10.0 11.0 37 47 99 0 1 0 0 1 0 0 0 0 0
35 65.0 55.0 10.0 14.0 0 183 74 0 0 0 1 0 0 0 0 1 1
36 63.0 65.0 10.0 8.0 143 153 70 0 0 0 0 0 1 0 0 0 0
37 2.0 60.0 10.0 5.0 41 51 69 0 0 0 0 0 0 0 0 0 1
38 20.0 20.0 10.0 8.0 0 198 30 0 0 0 0 0 1 0 0 0 0
39 5.0 5.0 10.0 16.0 83 93 73 1 1 0 0 1 0 0 0 0 1
40 60.0 12.0 10.0 31.0 44 54 48 0 1 0 0 0 0 0 0 0 1
41 40.0 25.0 10.0 9.0 85 95 34 0 0 0 1 0 0 1 0 0 1
42 42.0 7.0 10.0 5.0 97 107 65 0 0 0 0 1 1 0 0 0 0
43 24.0 12.0 10.0 5.0 31 41 28 0 0 1 0 1 0 1 0 1 1
44 23.0 3.0 10.0 7.0 132 142 54 0 0 0 0 0 0 0 1 0 0
45 11.0 14.0 10.0 18.0 69 79 79 0 0 1 0 1 0 0 0 0 0
46 6.0 38.0 10.0 16.0 32 42 42 0 1 0 0 0 0 0 0 0 0
47 2.0 48.0 10.0 1.0 117 127 66 1 0 1 0 1 0 0 0 0 0
48 8.0 56.0 10.0 27.0 51 61 68 0 0 0 0 1 0 0 0 1 0
49 13.0 52.0 10.0 36.0 0 192 30 0 0 0 0 0 0 0 0 0 1
50 6.0 68.0 10.0 30.0 108 118 84 0 0 0 1 0 0 1 0 0 1
51 47.0 47.0 10.0 13.0 0 203 82 0 0 0 0 0 0 0 0 1 0
52 49.0 58.0 10.0 10.0 88 98 91 0 0 0 0 0 0 0 1 0 0
53 27.0 43.0 10.0 9.0 0 208 99 0 1 0 0 1 0 1 0 1 0
54 37.0 31.0 10.0 14.0 95 105 14 0 1 0 0 0 1 1 1 0 1
55 57.0 29.0 10.0 18.0 140 150 8 0 0 1 1 0 0 0 0 0 0
56 63.0 23.0 10.0 2.0 136 146 45 0 0 0 0 0 0 0 0 0 1
57 53.0 12.0 10.0 6.0 130 140 24 0 1 0 0 0 0 0 0 0 0
58 32.0 12.0 10.0 7.0 101 111 87 0 1 0 0 0 0 0 0 0 0
59 36.0 26.0 10.0 18.0 200 210 72 0 1 0 1 0 0 0 0 0 1
60 21.0 24.0 10.0 28.0 0 202 81 1 1 1 0 0 0 0 0 0 0
61 17.0 34.0 10.0 3.0 162 172 67 0 0 1 0 0 0 1 0 0 1
62 12.0 24.0 10.0 13.0 76 86 87 0 0 0 0 0 1 0 0 0 0
63 24.0 58.0 10.0 19.0 58 68 20 0 0 0 0 1 0 0 0 0 0
64 27.0 69.0 10.0 10.0 34 44 21 0 0 0 1 0 0 0 0 0 1
65 15.0 77.0 10.0 9.0 73 83 16 0 0 0 0 0 0 1 0 0 1
66 62.0 77.0 10.0 20.0 51 61 54 0 1 0 0 0 0 0 0 0 0
67 49.0 73.0 10.0 25.0 127 137 32 0 0 1 0 0 0 1 0 0 0
68 67.0 5.0 10.0 25.0 83 93 36 1 0 0 1 1 0 0 0 0 0
69 56.0 39.0 10.0 36.0 142 152 82 0 0 1 0 0 0 0 1 0 0
70 37.0 47.0 10.0 6.0 50 60 12 0 0 1 0 0 1 0 1 0 0
71 37.0 56.0 10.0 5.0 182 192 80 0 0 0 0 1 0 1 0 0 0
72 57.0 68.0 10.0 15.0 77 87 28 1 0 0 0 0 1 0 1 1 0
73 47.0 16.0 10.0 25.0 0 197 69 0 0 0 1 0 0 0 0 0 0
74 44.0 17.0 10.0 9.0 78 88 22 0 0 0 1 1 0 0 0 0 0
75 46.0 13.0 10.0 8.0 149 159 9 1 0 0 0 0 0 0 0 1 0
76 49.0 11.0 10.0 18.0 0 192 84 0 0 1 0 0 0 0 0 1 1
77 49.0 42.0 10.0 13.0 73 83 14 0 0 0 0 1 1 0 0 0 0
78 53.0 43.0 10.0 14.0 179 189 28 0 0 0 0 0 0 0 0 0 1
79 61.0 52.0 10.0 3.0 96 106 8 0 0 0 0 0 1 0 0 0 0
80 57.0 48.0 10.0 23.0 92 102 4 1 0 0 0 0 0 0 0 0 0
81 56.0 37.0 10.0 6.0 182 192 48 1 1 0 1 0 0 0 0 0 0
82 55.0 54.0 10.0 26.0 94 104 64 1 0 0 0 0 0 0 0 0 0
83 15.0 47.0 10.0 16.0 0 196 64 0 0 0 1 0 0 0 0 0 0
84 14.0 37.0 10.0 11.0 0 198 98 1 0 0 0 1 1 0 0 0 0
85 11.0 31.0 10.0 7.0 101 111 60 0 0 0 0 0 0 1 0 0 1
86 16.0 22.0 10.0 41.0 0 196 77 1 1 0 0 0 0 0 0 0 1
87 4.0 18.0 10.0 35.0 94 104 71 0 1 0 0 0 0 0 0 0 0
88 28.0 18.0 10.0 26.0 93 103 81 0 1 0 0 1 0 1 0 0 0
89 26.0 52.0 10.0 9.0 74 84 4 0 0 0 0 0 1 1 1 0 0
90 26.0 35.0 10.0 15.0 176 186 38 0 0 1 0 0 0 0 0 0 0
91 31.0 67.0 10.0 3.0 95 105 33 0 0 0 1 0 0 0 0 1 0
92 15.0 19.0 10.0 1.0 0 194 89 0 0 1 0 0 0 0 0 0 1
93 22.0 22.0 10.0 2.0 18 28 4 0 0 1 0 0 1 1 0 1 0
94 18.0 24.0 10.0 22.0 188 198 31 1 0 0 0 1 0 0 0 0 1
95 26.0 27.0 10.0 27.0 0 207 61 0 0 0 1 0 0 0 0 0 0
96 25.0 24.0 10.0 20.0 0 205 1 1 1 0 1 0 1 1 1 0 0
97 22.0 27.0 10.0 11.0 0 204 25 1 0 0 0 1 0 0 0 0 0
98 25.0 21.0 10.0 12.0 133 143 46 1 0 0 0 1 0 0 0 0 1
99 19.0 21.0 10.0 10.0 0 198 72 1 0 0 0 1 0 0 1 0 0
100 20.0 26.0 10.0 9.0 83 93 97 1 0 1 0 0 0 0 0 0 0
101 18.0 18.0 10.0 17.0 185 195 59 0 0 0 0 0 0 0 1 0 1